VACCINE = Vaccine(1..3);
m = 24;
age = [SENIOR, CHILD, SENIOR, AGED, BABY, ADULT, YOUTH, YOUTH, YOUTH, ANCIENT, BABY, ADULT, CHILD, YOUTH, AGED, CHILD, AGED, AGED, CHILD, ANCIENT, YOUTH, BABY, CHILD, ADULT];
gender = [OTHER, MALE, MALE, OTHER, MALE, MALE, FEMALE, MALE, FEMALE, FEMALE, OTHER, OTHER, FEMALE, OTHER, OTHER, FEMALE, OTHER, OTHER, FEMALE, MALE, OTHER, OTHER, OTHER, OTHER];
health = [GOOD, GOOD, GOOD, GOOD, POOR, GOOD, COMPROMISED, POOR, COMPROMISED, POOR, GOOD, GOOD, GOOD, COMPROMISED, COMPROMISED, POOR, GOOD, COMPROMISED, GOOD, POOR, COMPROMISED, GOOD, GOOD, COMPROMISED];
exposure = [EXTREME, AVERAGE, LOW, HIGH, LOW, AVERAGE, AVERAGE, HIGH, LOW, EXTREME, LOW, AVERAGE, LOW, EXTREME, HIGH, HIGH, AVERAGE, LOW, EXTREME, HIGH, LOW, LOW, AVERAGE, HIGH];
size = [8, 11, 9, 10, 12, 13, 13, 11, 11, 9, 11, 13, 13, 13, 11, 10, 8, 9, 10, 9, 11, 9, 13, 8];
minsize = 8;
age_group_min = [0, 1, 1, 1, 0, 1, 0];
age_group_max = [18, 21, 14, 12, 22, 16, 8];
max_people_diff = 107;
max_share_vaccines = 3;
health_information = {10, 15, 18};
exposure_information = {1, 8, 13, 15};